ALGO = Normal
EDIFF = 1e-05
EDIFFG = -0.03
ENCUT = 400
IBRION = 2
ISIF = 3
ISTART = 0
KGAMMA = False
KSPACING = 0.4
LCHARG = False
LREAL = False
LWAVE = False
NELM = 100
NELMDL = -5
NELMIN = 6
NSW = 100
PREC = Accurate
PSTRESS = 0.0
ISMEAR = -5
NCORE = 8
